
Gurobi 9.1.2 (win64, Java) logging started Sun Nov 14 00:27:38 2021

Academic license - for non-commercial use only - expires 2022-10-30
Gurobi Optimizer version 9.1.2 build v9.1.2rc0 (win64)
Thread count: 6 physical cores, 12 logical processors, using up to 12 threads
Optimize a model with 60 rows, 800 columns and 1600 nonzeros
Model fingerprint: 0x00c2fc9a
Variable types: 0 continuous, 800 integer (800 binary)
Coefficient statistics:
  Matrix range     [1e+00, 1e+03]
  Objective range  [4e+02, 1e+03]
  Bounds range     [1e+00, 1e+00]
  RHS range        [1e+00, 9e+02]
Found heuristic solution: objective 16227.000000
Presolve removed 5 rows and 420 columns
Presolve time: 0.02s
Presolved: 55 rows, 380 columns, 760 nonzeros
Variable types: 0 continuous, 380 integer (380 binary)
Presolved: 55 rows, 380 columns, 760 nonzeros


Root relaxation: objective 2.076804e+04, 221 iterations, 0.00 seconds

    Nodes    |    Current Node    |     Objective Bounds      |     Work
 Expl Unexpl |  Obj  Depth IntInf | Incumbent    BestBd   Gap | It/Node Time

     0     0 20768.0377    0   20 16227.0000 20768.0377  28.0%     -    0s
H    0     0                    18541.000000 20768.0377  12.0%     -    0s
H    0     0                    18913.000000 20768.0377  9.81%     -    0s
H    0     0                    18978.000000 20768.0377  9.43%     -    0s
H    0     0                    18986.000000 20768.0377  9.39%     -    0s
H    0     0                    19381.000000 20768.0377  7.16%     -    0s
     0     0 20482.8874    0   27 19381.0000 20482.8874  5.69%     -    0s
H    0     0                    19748.000000 20482.8874  3.72%     -    0s
     0     0 20431.4647    0   39 19748.0000 20431.4647  3.46%     -    0s
H    0     0                    19780.000000 20431.4647  3.29%     -    1s
     0     0 20431.4568    0   41 19780.0000 20431.4568  3.29%     -    1s
     0     0 20384.6846    0   44 19780.0000 20384.6846  3.06%     -    1s
H    0     0                    20100.000000 20384.6846  1.42%     -    1s
     0     0 20383.8188    0   46 20100.0000 20383.8188  1.41%     -    1s
     0     0 20383.3767    0   45 20100.0000 20383.3767  1.41%     -    1s
     0     0 20340.5105    0   43 20100.0000 20340.5105  1.20%     -    1s
     0     0 20337.9821    0   35 20100.0000 20337.9821  1.18%     -    1s
     0     0 20337.8359    0   34 20100.0000 20337.8359  1.18%     -    1s
     0     0 20308.1930    0   31 20100.0000 20308.1930  1.04%     -    2s
     0     0 20308.1710    0   33 20100.0000 20308.1710  1.04%     -    2s
     0     0 20284.2910    0   40 20100.0000 20284.2910  0.92%     -    2s
     0     0 20283.8648    0   37 20100.0000 20283.8648  0.91%     -    2s
H    0     0                    20193.000000 20283.8648  0.45%     -    2s
     0     0 20275.3756    0   39 20193.0000 20275.3756  0.41%     -    2s
     0     0 20275.3756    0   38 20193.0000 20275.3756  0.41%     -    2s
     0     0 20253.9032    0   46 20193.0000 20253.9032  0.30%     -    2s
     0     0 20252.8001    0   34 20193.0000 20252.8001  0.30%     -    2s
     0     0 20252.8001    0   19 20193.0000 20252.8001  0.30%     -    3s
     0     0 20252.8001    0   38 20193.0000 20252.8001  0.30%     -    3s
     0     0 20252.8001    0   13 20193.0000 20252.8001  0.30%     -    3s
     0     0 20252.8001    0   22 20193.0000 20252.8001  0.30%     -    3s
     0     0 20252.8001    0   17 20193.0000 20252.8001  0.30%     -    3s
     0     0 20252.8001    0   22 20193.0000 20252.8001  0.30%     -    3s
     0     0 20252.8001    0   26 20193.0000 20252.8001  0.30%     -    3s
     0     0 20252.8001    0   24 20193.0000 20252.8001  0.30%     -    3s
     0     0 20252.8001    0   27 20193.0000 20252.8001  0.30%     -    3s
     0     0 20252.8001    0   24 20193.0000 20252.8001  0.30%     -    3s
     0     0 20252.8001    0   16 20193.0000 20252.8001  0.30%     -    3s
     0     0 20248.4504    0   15 20193.0000 20248.4504  0.27%     -    3s
     0     0 20247.7919    0   12 20193.0000 20247.7919  0.27%     -    3s
     0     0 20247.7919    0   12 20193.0000 20247.7919  0.27%     -    3s
     0     0 20247.7919    0   13 20193.0000 20247.7919  0.27%     -    4s
     0     0 20247.7919    0   17 20193.0000 20247.7919  0.27%     -    4s
     0     0 20247.7919    0   28 20193.0000 20247.7919  0.27%     -    4s
     0     0 20247.7919    0   26 20193.0000 20247.7919  0.27%     -    4s
     0     0 20247.7919    0   27 20193.0000 20247.7919  0.27%     -    4s
     0     0 20241.7563    0   31 20193.0000 20241.7563  0.24%     -    4s
     0     0 20241.7563    0   28 20193.0000 20241.7563  0.24%     -    4s
     0     0 20235.6743    0   15 20193.0000 20235.6743  0.21%     -    4s
     0     0 20229.4167    0   16 20193.0000 20229.4167  0.18%     -    4s
     0     0 20228.3207    0   16 20193.0000 20228.3207  0.17%     -    4s
     0     0 20228.3207    0   16 20193.0000 20228.3207  0.17%     -    4s
     0     0 20228.3207    0   11 20193.0000 20228.3207  0.17%     -    5s
     0     0 20228.3207    0   25 20193.0000 20228.3207  0.17%     -    5s
     0     0     cutoff    0      20193.0000 20193.0000  0.00%     -    5s

Cutting planes:
  Gomory: 7
  Cover: 6
  Clique: 3
  MIR: 5
  StrongCG: 5
  Zero half: 1

Explored 1 nodes (2754 simplex iterations) in 5.31 seconds
Thread count was 12 (of 12 available processors)

Solution count 10: 20193 20193 20100 ... 18541

Optimal solution found (tolerance 1.00e-12)
Best objective 2.019300000000e+04, best bound 2.019300000000e+04, gap 0.0000%
